70
1 0 2
2 0 1
2 1 2
3 0 1
3 1 2
3 2 2
4 0 4
4 1 3
4 2 4
4 3 2
5 0 3
5 1 3
5 2 3
5 3 1
5 4 3
6 0 1
6 1 5
6 2 2
6 3 2
6 4 2
6 5 2
7 0 3
7 1 4
7 2 1
7 3 3
7 4 5
7 5 4
7 6 5
8 0 1
8 1 1
8 2 1
8 3 1
8 4 1
8 5 3
8 6 2
8 7 5
9 0 5
9 1 5
9 2 1
9 3 1
9 4 3
9 5 2
9 6 4
9 7 5
9 8 2
10 0 4
10 1 4
10 2 5
10 3 5
10 4 5
10 5 4
10 6 5
10 7 3
10 8 3
10 9 2
11 0 2
11 1 3
11 2 5
11 3 5
11 4 2
11 5 3
11 6 4
11 7 1
11 8 1
11 9 3
11 10 3
12 0 3
12 1 4
12 2 4
12 3 5
12 4 1
12 5 1
12 6 4
12 7 2
12 8 5
12 9 2
12 10 5
12 11 1
13 0 5
13 1 4
13 2 1
13 3 1
13 4 1
13 5 3
13 6 4
13 7 5
13 8 1
13 9 2
13 10 4
13 11 2
13 12 5
14 0 4
14 1 1
14 2 3
14 3 4
14 4 2
14 5 1
14 6 2
14 7 5
14 8 2
14 9 2
14 10 2
14 11 4
14 12 1
14 13 4
15 0 5
15 1 1
15 2 4
15 3 1
15 4 3
15 5 1
15 6 1
15 7 4
15 8 4
15 9 2
15 10 5
15 11 4
15 12 2
15 13 1
15 14 1
16 0 3
16 1 2
16 2 3
16 3 2
16 4 5
16 5 1
16 6 5
16 7 4
16 8 4
16 9 3
16 10 2
16 11 5
16 12 1
16 13 4
16 14 3
16 15 5
17 0 4
17 1 3
17 2 4
17 3 5
17 4 4
17 5 5
17 6 1
17 7 2
17 8 2
17 9 3
17 10 4
17 11 3
17 12 5
17 13 4
17 14 2
17 15 5
17 16 4
18 0 4
18 1 5
18 2 2
18 3 3
18 4 1
18 5 1
18 6 3
18 7 1
18 8 4
18 9 4
18 10 3
18 11 4
18 12 3
18 13 4
18 14 1
18 15 1
18 16 1
18 17 4
19 0 5
19 1 4
19 2 4
19 3 3
19 4 1
19 5 4
19 6 1
19 7 3
19 8 3
19 9 2
19 10 3
19 11 1
19 12 5
19 13 3
19 14 4
19 15 3
19 16 1
19 17 3
19 18 2
20 0 4
20 1 2
20 2 4
20 3 3
20 4 5
20 5 4
20 6 4
20 7 5
20 8 2
20 9 2
20 10 2
20 11 3
20 12 2
20 13 1
20 14 2
20 15 5
20 16 2
20 17 3
20 18 3
20 19 1
21 0 4
21 1 4
21 2 4
21 3 5
21 4 4
21 5 2
21 6 1
21 7 4
21 8 5
21 9 1
21 10 4
21 11 2
21 12 2
21 13 1
21 14 2
21 15 1
21 16 1
21 17 2
21 18 1
21 19 3
21 20 2
22 0 5
22 1 4
22 2 5
22 3 4
22 4 1
22 5 2
22 6 4
22 7 5
22 8 1
22 9 1
22 10 1
22 11 5
22 12 4
22 13 5
22 14 3
22 15 2
22 16 2
22 17 4
22 18 5
22 19 3
22 20 1
22 21 3
23 0 2
23 1 4
23 2 4
23 3 3
23 4 2
23 5 4
23 6 4
23 7 2
23 8 1
23 9 1
23 10 3
23 11 1
23 12 3
23 13 2
23 14 2
23 15 3
23 16 5
23 17 5
23 18 3
23 19 3
23 20 4
23 21 2
23 22 2
24 0 2
24 1 2
24 2 5
24 3 4
24 4 5
24 5 4
24 6 1
24 7 1
24 8 4
24 9 5
24 10 5
24 11 2
24 12 1
24 13 1
24 14 2
24 15 4
24 16 2
24 17 3
24 18 5
24 19 5
24 20 2
24 21 1
24 22 3
24 23 3
25 0 4
25 1 3
25 2 4
25 3 2
25 4 1
25 5 4
25 6 3
25 7 3
25 8 1
25 9 3
25 10 5
25 11 1
25 12 4
25 13 4
25 14 5
25 15 3
25 16 4
25 17 3
25 18 3
25 19 4
25 20 3
25 21 2
25 22 4
25 23 4
25 24 3
26 0 1
26 1 4
26 2 3
26 3 5
26 4 2
26 5 3
26 6 2
26 7 5
26 8 1
26 9 4
26 10 1
26 11 4
26 12 4
26 13 2
26 14 4
26 15 4
26 16 5
26 17 1
26 18 4
26 19 3
26 20 4
26 21 5
26 22 4
26 23 2
26 24 1
26 25 5
27 0 4
27 1 2
27 2 4
27 3 3
27 4 3
27 5 1
27 6 4
27 7 5
27 8 5
27 9 4
27 10 2
27 11 1
27 12 4
27 13 4
27 14 5
27 15 1
27 16 2
27 17 1
27 18 1
27 19 3
27 20 5
27 21 1
27 22 4
27 23 4
27 24 3
27 25 4
27 26 1
28 0 1
28 1 2
28 2 2
28 3 5
28 4 1
28 5 5
28 6 2
28 7 3
28 8 4
28 9 2
28 10 5
28 11 2
28 12 3
28 13 4
28 14 4
28 15 1
28 16 3
28 17 4
28 18 4
28 19 3
28 20 5
28 21 2
28 22 3
28 23 3
28 24 4
28 25 2
28 26 3
28 27 4
29 0 4
29 1 2
29 2 5
29 3 5
29 4 1
29 5 1
29 6 4
29 7 4
29 8 2
29 9 2
29 10 5
29 11 5
29 12 4
29 13 3
29 14 1
29 15 5
29 16 4
29 17 3
29 18 3
29 19 2
29 20 4
29 21 2
29 22 2
29 23 3
29 24 2
29 25 2
29 26 4
29 27 3
29 28 4
30 0 5
30 1 2
30 2 3
30 3 5
30 4 5
30 5 4
30 6 3
30 7 1
30 8 4
30 9 5
30 10 3
30 11 1
30 12 4
30 13 4
30 14 1
30 15 4
30 16 3
30 17 3
30 18 5
30 19 1
30 20 2
30 21 2
30 22 4
30 23 4
30 24 2
30 25 2
30 26 1
30 27 4
30 28 1
30 29 4
31 0 2
31 1 1
31 2 2
31 3 2
31 4 3
31 5 5
31 6 5
31 7 5
31 8 2
31 9 4
31 10 1
31 11 1
31 12 5
31 13 1
31 14 1
31 15 1
31 16 3
31 17 4
31 18 5
31 19 1
31 20 1
31 21 5
31 22 2
31 23 4
31 24 2
31 25 5
31 26 2
31 27 5
31 28 2
31 29 3
31 30 2
32 0 2
32 1 1
32 2 4
32 3 1
32 4 5
32 5 5
32 6 1
32 7 1
32 8 5
32 9 2
32 10 3
32 11 3
32 12 1
32 13 3
32 14 4
32 15 2
32 16 1
32 17 5
32 18 1
32 19 1
32 20 3
32 21 3
32 22 2
32 23 4
32 24 4
32 25 2
32 26 3
32 27 2
32 28 2
32 29 1
32 30 2
32 31 3
33 0 5
33 1 3
33 2 2
33 3 1
33 4 5
33 5 3
33 6 2
33 7 3
33 8 3
33 9 3
33 10 5
33 11 4
33 12 5
33 13 3
33 14 3
33 15 1
33 16 5
33 17 1
33 18 2
33 19 3
33 20 4
33 21 2
33 22 5
33 23 5
33 24 2
33 25 1
33 26 3
33 27 3
33 28 3
33 29 4
33 30 1
33 31 5
33 32 3
34 0 3
34 1 3
34 2 5
34 3 3
34 4 3
34 5 1
34 6 5
34 7 5
34 8 1
34 9 5
34 10 3
34 11 5
34 12 1
34 13 4
34 14 3
34 15 5
34 16 3
34 17 5
34 18 5
34 19 3
34 20 3
34 21 5
34 22 1
34 23 2
34 24 3
34 25 1
34 26 1
34 27 3
34 28 1
34 29 2
34 30 4
34 31 5
34 32 5
34 33 2
35 0 4
35 1 1
35 2 4
35 3 2
35 4 1
35 5 1
35 6 4
35 7 2
35 8 5
35 9 3
35 10 4
35 11 4
35 12 2
35 13 2
35 14 1
35 15 1
35 16 3
35 17 2
35 18 1
35 19 5
35 20 1
35 21 2
35 22 5
35 23 4
35 24 2
35 25 2
35 26 2
35 27 1
35 28 1
35 29 1
35 30 3
35 31 1
35 32 2
35 33 2
35 34 3
36 0 5
36 1 3
36 2 1
36 3 3
36 4 4
36 5 4
36 6 1
36 7 3
36 8 2
36 9 5
36 10 1
36 11 1
36 12 2
36 13 2
36 14 3
36 15 5
36 16 1
36 17 5
36 18 1
36 19 5
36 20 5
36 21 4
36 22 2
36 23 5
36 24 3
36 25 2
36 26 2
36 27 3
36 28 4
36 29 3
36 30 4
36 31 2
36 32 4
36 33 3
36 34 1
36 35 5
37 0 4
37 1 1
37 2 1
37 3 1
37 4 4
37 5 2
37 6 1
37 7 3
37 8 4
37 9 4
37 10 5
37 11 4
37 12 4
37 13 4
37 14 5
37 15 5
37 16 1
37 17 1
37 18 4
37 19 3
37 20 3
37 21 2
37 22 3
37 23 2
37 24 3
37 25 4
37 26 5
37 27 3
37 28 4
37 29 4
37 30 3
37 31 5
37 32 4
37 33 3
37 34 3
37 35 3
37 36 3
38 0 1
38 1 4
38 2 1
38 3 4
38 4 3
38 5 2
38 6 2
38 7 2
38 8 2
38 9 4
38 10 2
38 11 1
38 12 5
38 13 3
38 14 1
38 15 1
38 16 5
38 17 3
38 18 2
38 19 5
38 20 2
38 21 3
38 22 2
38 23 5
38 24 1
38 25 5
38 26 1
38 27 1
38 28 2
38 29 1
38 30 2
38 31 1
38 32 4
38 33 3
38 34 3
38 35 3
38 36 5
38 37 2
39 0 3
39 1 1
39 2 1
39 3 2
39 4 4
39 5 5
39 6 1
39 7 2
39 8 3
39 9 5
39 10 3
39 11 4
39 12 3
39 13 2
39 14 3
39 15 4
39 16 4
39 17 4
39 18 5
39 19 1
39 20 5
39 21 4
39 22 4
39 23 3
39 24 3
39 25 1
39 26 3
39 27 1
39 28 3
39 29 2
39 30 1
39 31 3
39 32 4
39 33 1
39 34 5
39 35 3
39 36 2
39 37 3
39 38 3
40 0 1
40 1 3
40 2 4
40 3 1
40 4 3
40 5 3
40 6 5
40 7 2
40 8 3
40 9 5
40 10 3
40 11 3
40 12 4
40 13 2
40 14 3
40 15 1
40 16 5
40 17 3
40 18 1
40 19 1
40 20 1
40 21 4
40 22 4
40 23 2
40 24 2
40 25 2
40 26 1
40 27 2
40 28 2
40 29 2
40 30 1
40 31 3
40 32 2
40 33 4
40 34 1
40 35 2
40 36 3
40 37 2
40 38 3
40 39 4
41 0 3
41 1 5
41 2 1
41 3 2
41 4 2
41 5 2
41 6 2
41 7 4
41 8 3
41 9 1
41 10 3
41 11 3
41 12 3
41 13 1
41 14 2
41 15 1
41 16 5
41 17 1
41 18 5
41 19 4
41 20 5
41 21 3
41 22 1
41 23 1
41 24 5
41 25 2
41 26 2
41 27 5
41 28 5
41 29 1
41 30 2
41 31 4
41 32 3
41 33 2
41 34 5
41 35 2
41 36 2
41 37 4
41 38 5
41 39 5
41 40 2
42 0 2
42 1 2
42 2 1
42 3 1
42 4 4
42 5 4
42 6 5
42 7 2
42 8 5
42 9 5
42 10 1
42 11 4
42 12 3
42 13 5
42 14 5
42 15 5
42 16 1
42 17 2
42 18 1
42 19 2
42 20 4
42 21 1
42 22 3
42 23 2
42 24 2
42 25 4
42 26 1
42 27 5
42 28 1
42 29 5
42 30 1
42 31 3
42 32 5
42 33 5
42 34 3
42 35 2
42 36 2
42 37 4
42 38 3
42 39 2
42 40 4
42 41 5
43 0 3
43 1 3
43 2 1
43 3 3
43 4 2
43 5 5
43 6 1
43 7 3
43 8 1
43 9 4
43 10 4
43 11 2
43 12 1
43 13 4
43 14 3
43 15 3
43 16 4
43 17 4
43 18 4
43 19 5
43 20 1
43 21 2
43 22 5
43 23 1
43 24 4
43 25 1
43 26 1
43 27 2
43 28 4
43 29 4
43 30 4
43 31 4
43 32 1
43 33 4
43 34 5
43 35 5
43 36 1
43 37 5
43 38 5
43 39 4
43 40 4
43 41 4
43 42 5
44 0 3
44 1 4
44 2 2
44 3 2
44 4 4
44 5 1
44 6 5
44 7 3
44 8 2
44 9 5
44 10 1
44 11 2
44 12 1
44 13 2
44 14 2
44 15 5
44 16 1
44 17 2
44 18 1
44 19 3
44 20 5
44 21 4
44 22 3
44 23 4
44 24 5
44 25 1
44 26 2
44 27 5
44 28 3
44 29 1
44 30 3
44 31 1
44 32 4
44 33 5
44 34 4
44 35 1
44 36 3
44 37 1
44 38 2
44 39 1
44 40 2
44 41 2
44 42 5
44 43 1
45 0 1
45 1 2
45 2 1
45 3 5
45 4 3
45 5 5
45 6 3
45 7 1
45 8 2
45 9 2
45 10 2
45 11 1
45 12 1
45 13 3
45 14 3
45 15 4
45 16 2
45 17 5
45 18 3
45 19 5
45 20 2
45 21 5
45 22 5
45 23 5
45 24 3
45 25 1
45 26 5
45 27 4
45 28 4
45 29 5
45 30 2
45 31 1
45 32 5
45 33 3
45 34 3
45 35 4
45 36 2
45 37 2
45 38 4
45 39 3
45 40 4
45 41 3
45 42 1
45 43 3
45 44 5
46 0 3
46 1 1
46 2 1
46 3 2
46 4 1
46 5 5
46 6 1
46 7 2
46 8 4
46 9 5
46 10 1
46 11 1
46 12 5
46 13 5
46 14 4
46 15 4
46 16 2
46 17 1
46 18 5
46 19 5
46 20 1
46 21 3
46 22 2
46 23 1
46 24 5
46 25 1
46 26 5
46 27 1
46 28 3
46 29 1
46 30 1
46 31 5
46 32 5
46 33 3
46 34 5
46 35 1
46 36 5
46 37 1
46 38 2
46 39 5
46 40 3
46 41 4
46 42 2
46 43 3
46 44 5
46 45 5
47 0 3
47 1 1
47 2 4
47 3 2
47 4 4
47 5 4
47 6 2
47 7 1
47 8 1
47 9 2
47 10 5
47 11 2
47 12 3
47 13 1
47 14 3
47 15 5
47 16 3
47 17 4
47 18 3
47 19 3
47 20 5
47 21 5
47 22 3
47 23 2
47 24 3
47 25 4
47 26 2
47 27 1
47 28 5
47 29 4
47 30 1
47 31 5
47 32 3
47 33 4
47 34 5
47 35 4
47 36 5
47 37 3
47 38 5
47 39 4
47 40 4
47 41 5
47 42 3
47 43 5
47 44 3
47 45 3
47 46 3
48 0 2
48 1 2
48 2 3
48 3 5
48 4 5
48 5 5
48 6 2
48 7 3
48 8 3
48 9 5
48 10 1
48 11 5
48 12 3
48 13 1
48 14 1
48 15 2
48 16 4
48 17 2
48 18 1
48 19 5
48 20 3
48 21 3
48 22 3
48 23 2
48 24 5
48 25 4
48 26 1
48 27 5
48 28 3
48 29 4
48 30 2
48 31 2
48 32 2
48 33 2
48 34 4
48 35 1
48 36 1
48 37 1
48 38 5
48 39 5
48 40 1
48 41 2
48 42 2
48 43 4
48 44 4
48 45 1
48 46 1
48 47 5
49 0 2
49 1 3
49 2 4
49 3 4
49 4 4
49 5 3
49 6 2
49 7 5
49 8 1
49 9 1
49 10 2
49 11 1
49 12 3
49 13 5
49 14 2
49 15 2
49 16 2
49 17 1
49 18 2
49 19 5
49 20 2
49 21 1
49 22 5
49 23 1
49 24 2
49 25 3
49 26 2
49 27 5
49 28 1
49 29 3
49 30 2
49 31 5
49 32 1
49 33 1
49 34 4
49 35 2
49 36 1
49 37 2
49 38 2
49 39 3
49 40 4
49 41 2
49 42 2
49 43 3
49 44 1
49 45 2
49 46 1
49 47 1
49 48 1
50 0 3
50 1 3
50 2 2
50 3 5
50 4 3
50 5 3
50 6 1
50 7 2
50 8 3
50 9 4
50 10 4
50 11 3
50 12 4
50 13 4
50 14 3
50 15 3
50 16 1
50 17 1
50 18 5
50 19 1
50 20 5
50 21 2
50 22 4
50 23 3
50 24 4
50 25 5
50 26 1
50 27 4
50 28 5
50 29 1
50 30 3
50 31 4
50 32 4
50 33 3
50 34 4
50 35 2
50 36 4
50 37 4
50 38 2
50 39 4
50 40 1
50 41 2
50 42 2
50 43 1
50 44 3
50 45 4
50 46 2
50 47 5
50 48 5
50 49 5
51 0 5
51 1 1
51 2 1
51 3 4
51 4 2
51 5 5
51 6 5
51 7 2
51 8 1
51 9 3
51 10 4
51 11 2
51 12 5
51 13 5
51 14 3
51 15 2
51 16 1
51 17 3
51 18 2
51 19 4
51 20 5
51 21 1
51 22 1
51 23 4
51 24 5
51 25 5
51 26 1
51 27 2
51 28 5
51 29 1
51 30 5
51 31 1
51 32 3
51 33 4
51 34 4
51 35 3
51 36 5
51 37 2
51 38 4
51 39 4
51 40 4
51 41 1
51 42 3
51 43 2
51 44 2
51 45 2
51 46 1
51 47 1
51 48 5
51 49 3
51 50 4
52 0 2
52 1 4
52 2 2
52 3 1
52 4 1
52 5 5
52 6 3
52 7 5
52 8 4
52 9 1
52 10 2
52 11 1
52 12 5
52 13 2
52 14 5
52 15 5
52 16 4
52 17 3
52 18 1
52 19 2
52 20 1
52 21 5
52 22 1
52 23 2
52 24 2
52 25 4
52 26 4
52 27 5
52 28 3
52 29 1
52 30 4
52 31 5
52 32 5
52 33 3
52 34 5
52 35 2
52 36 2
52 37 5
52 38 1
52 39 1
52 40 1
52 41 1
52 42 5
52 43 3
52 44 3
52 45 2
52 46 3
52 47 1
52 48 5
52 49 3
52 50 4
52 51 1
53 0 2
53 1 2
53 2 4
53 3 5
53 4 4
53 5 3
53 6 4
53 7 2
53 8 5
53 9 1
53 10 2
53 11 3
53 12 1
53 13 4
53 14 2
53 15 2
53 16 1
53 17 4
53 18 1
53 19 5
53 20 1
53 21 3
53 22 5
53 23 5
53 24 3
53 25 4
53 26 1
53 27 5
53 28 5
53 29 2
53 30 4
53 31 1
53 32 4
53 33 4
53 34 4
53 35 4
53 36 4
53 37 4
53 38 2
53 39 4
53 40 5
53 41 1
53 42 4
53 43 5
53 44 3
53 45 5
53 46 5
53 47 5
53 48 2
53 49 3
53 50 2
53 51 4
53 52 4
54 0 5
54 1 5
54 2 4
54 3 4
54 4 5
54 5 3
54 6 3
54 7 3
54 8 3
54 9 5
54 10 4
54 11 4
54 12 4
54 13 4
54 14 3
54 15 5
54 16 2
54 17 5
54 18 1
54 19 5
54 20 4
54 21 5
54 22 4
54 23 1
54 24 4
54 25 4
54 26 1
54 27 5
54 28 2
54 29 4
54 30 1
54 31 2
54 32 3
54 33 4
54 34 5
54 35 2
54 36 1
54 37 1
54 38 3
54 39 5
54 40 1
54 41 3
54 42 2
54 43 5
54 44 4
54 45 2
54 46 3
54 47 5
54 48 5
54 49 5
54 50 5
54 51 2
54 52 2
54 53 2
55 0 1
55 1 1
55 2 3
55 3 1
55 4 3
55 5 1
55 6 3
55 7 5
55 8 4
55 9 1
55 10 1
55 11 1
55 12 4
55 13 1
55 14 1
55 15 3
55 16 2
55 17 2
55 18 4
55 19 4
55 20 2
55 21 4
55 22 4
55 23 4
55 24 2
55 25 3
55 26 2
55 27 4
55 28 3
55 29 3
55 30 4
55 31 1
55 32 1
55 33 5
55 34 1
55 35 2
55 36 1
55 37 3
55 38 2
55 39 3
55 40 4
55 41 3
55 42 5
55 43 4
55 44 5
55 45 3
55 46 5
55 47 4
55 48 2
55 49 5
55 50 5
55 51 4
55 52 3
55 53 4
55 54 3
56 0 3
56 1 4
56 2 5
56 3 2
56 4 3
56 5 4
56 6 5
56 7 1
56 8 4
56 9 4
56 10 2
56 11 4
56 12 4
56 13 5
56 14 4
56 15 1
56 16 5
56 17 3
56 18 1
56 19 3
56 20 5
56 21 3
56 22 5
56 23 4
56 24 2
56 25 3
56 26 4
56 27 1
56 28 4
56 29 5
56 30 2
56 31 1
56 32 5
56 33 1
56 34 3
56 35 4
56 36 3
56 37 2
56 38 5
56 39 2
56 40 3
56 41 5
56 42 4
56 43 3
56 44 4
56 45 4
56 46 5
56 47 4
56 48 1
56 49 3
56 50 4
56 51 5
56 52 5
56 53 5
56 54 3
56 55 1
57 0 5
57 1 5
57 2 4
57 3 2
57 4 4
57 5 1
57 6 4
57 7 4
57 8 3
57 9 5
57 10 3
57 11 2
57 12 1
57 13 1
57 14 2
57 15 3
57 16 1
57 17 5
57 18 2
57 19 2
57 20 3
57 21 5
57 22 5
57 23 5
57 24 1
57 25 5
57 26 2
57 27 1
57 28 5
57 29 5
57 30 5
57 31 5
57 32 2
57 33 4
57 34 5
57 35 1
57 36 3
57 37 1
57 38 1
57 39 4
57 40 5
57 41 2
57 42 2
57 43 3
57 44 5
57 45 2
57 46 2
57 47 3
57 48 3
57 49 3
57 50 4
57 51 1
57 52 1
57 53 5
57 54 5
57 55 5
57 56 5
58 0 4
58 1 3
58 2 2
58 3 5
58 4 5
58 5 4
58 6 2
58 7 5
58 8 1
58 9 4
58 10 4
58 11 2
58 12 2
58 13 2
58 14 4
58 15 3
58 16 2
58 17 1
58 18 4
58 19 4
58 20 4
58 21 4
58 22 1
58 23 4
58 24 3
58 25 5
58 26 5
58 27 2
58 28 2
58 29 4
58 30 4
58 31 3
58 32 5
58 33 3
58 34 5
58 35 3
58 36 1
58 37 4
58 38 1
58 39 4
58 40 1
58 41 5
58 42 3
58 43 2
58 44 4
58 45 4
58 46 4
58 47 3
58 48 5
58 49 5
58 50 4
58 51 4
58 52 5
58 53 3
58 54 4
58 55 1
58 56 3
58 57 1
59 0 3
59 1 2
59 2 2
59 3 1
59 4 2
59 5 3
59 6 2
59 7 4
59 8 5
59 9 2
59 10 1
59 11 5
59 12 4
59 13 4
59 14 1
59 15 1
59 16 3
59 17 3
59 18 2
59 19 1
59 20 2
59 21 4
59 22 1
59 23 1
59 24 5
59 25 1
59 26 4
59 27 5
59 28 1
59 29 5
59 30 1
59 31 2
59 32 2
59 33 3
59 34 5
59 35 2
59 36 3
59 37 5
59 38 5
59 39 2
59 40 1
59 41 1
59 42 5
59 43 3
59 44 1
59 45 4
59 46 1
59 47 4
59 48 4
59 49 1
59 50 3
59 51 5
59 52 5
59 53 2
59 54 2
59 55 5
59 56 3
59 57 1
59 58 1
60 0 2
60 1 2
60 2 2
60 3 2
60 4 2
60 5 5
60 6 5
60 7 4
60 8 3
60 9 5
60 10 2
60 11 2
60 12 1
60 13 4
60 14 4
60 15 2
60 16 4
60 17 1
60 18 1
60 19 4
60 20 2
60 21 1
60 22 5
60 23 4
60 24 2
60 25 2
60 26 3
60 27 3
60 28 1
60 29 1
60 30 1
60 31 4
60 32 4
60 33 5
60 34 2
60 35 5
60 36 1
60 37 4
60 38 2
60 39 5
60 40 1
60 41 5
60 42 3
60 43 5
60 44 1
60 45 1
60 46 5
60 47 2
60 48 3
60 49 4
60 50 3
60 51 5
60 52 2
60 53 1
60 54 1
60 55 2
60 56 3
60 57 1
60 58 2
60 59 5
61 0 4
61 1 4
61 2 2
61 3 5
61 4 2
61 5 1
61 6 4
61 7 3
61 8 3
61 9 2
61 10 3
61 11 1
61 12 1
61 13 5
61 14 3
61 15 5
61 16 2
61 17 1
61 18 5
61 19 4
61 20 5
61 21 4
61 22 3
61 23 4
61 24 3
61 25 4
61 26 5
61 27 2
61 28 1
61 29 2
61 30 4
61 31 5
61 32 4
61 33 4
61 34 2
61 35 1
61 36 3
61 37 5
61 38 5
61 39 1
61 40 3
61 41 2
61 42 4
61 43 1
61 44 3
61 45 2
61 46 4
61 47 5
61 48 3
61 49 2
61 50 5
61 51 2
61 52 4
61 53 2
61 54 2
61 55 4
61 56 2
61 57 4
61 58 5
61 59 2
61 60 2
62 0 3
62 1 5
62 2 2
62 3 1
62 4 4
62 5 1
62 6 1
62 7 5
62 8 1
62 9 1
62 10 1
62 11 4
62 12 4
62 13 2
62 14 1
62 15 5
62 16 5
62 17 4
62 18 3
62 19 1
62 20 3
62 21 3
62 22 4
62 23 2
62 24 3
62 25 3
62 26 1
62 27 2
62 28 1
62 29 4
62 30 3
62 31 4
62 32 1
62 33 2
62 34 4
62 35 2
62 36 3
62 37 3
62 38 5
62 39 5
62 40 1
62 41 4
62 42 3
62 43 2
62 44 3
62 45 5
62 46 3
62 47 5
62 48 5
62 49 3
62 50 3
62 51 1
62 52 5
62 53 3
62 54 3
62 55 3
62 56 1
62 57 4
62 58 4
62 59 3
62 60 1
62 61 4
63 0 4
63 1 5
63 2 2
63 3 4
63 4 5
63 5 5
63 6 3
63 7 1
63 8 4
63 9 1
63 10 2
63 11 2
63 12 3
63 13 2
63 14 1
63 15 4
63 16 5
63 17 1
63 18 5
63 19 4
63 20 4
63 21 3
63 22 2
63 23 1
63 24 3
63 25 5
63 26 2
63 27 2
63 28 4
63 29 5
63 30 4
63 31 3
63 32 4
63 33 4
63 34 4
63 35 4
63 36 3
63 37 3
63 38 1
63 39 2
63 40 4
63 41 5
63 42 5
63 43 2
63 44 3
63 45 3
63 46 3
63 47 3
63 48 2
63 49 1
63 50 1
63 51 1
63 52 3
63 53 1
63 54 3
63 55 3
63 56 5
63 57 2
63 58 4
63 59 2
63 60 2
63 61 2
63 62 5
64 0 1
64 1 4
64 2 5
64 3 2
64 4 2
64 5 5
64 6 3
64 7 1
64 8 1
64 9 3
64 10 3
64 11 3
64 12 4
64 13 4
64 14 2
64 15 2
64 16 4
64 17 2
64 18 3
64 19 5
64 20 2
64 21 2
64 22 3
64 23 2
64 24 5
64 25 1
64 26 4
64 27 4
64 28 4
64 29 2
64 30 2
64 31 1
64 32 4
64 33 3
64 34 2
64 35 2
64 36 4
64 37 1
64 38 1
64 39 3
64 40 1
64 41 2
64 42 3
64 43 5
64 44 2
64 45 2
64 46 3
64 47 2
64 48 3
64 49 4
64 50 5
64 51 5
64 52 1
64 53 4
64 54 4
64 55 2
64 56 3
64 57 3
64 58 3
64 59 2
64 60 3
64 61 4
64 62 3
64 63 3
65 0 2
65 1 1
65 2 4
65 3 2
65 4 1
65 5 5
65 6 1
65 7 5
65 8 5
65 9 2
65 10 3
65 11 3
65 12 1
65 13 5
65 14 5
65 15 1
65 16 2
65 17 3
65 18 5
65 19 5
65 20 1
65 21 1
65 22 2
65 23 1
65 24 1
65 25 1
65 26 1
65 27 4
65 28 2
65 29 5
65 30 3
65 31 1
65 32 3
65 33 2
65 34 5
65 35 3
65 36 5
65 37 2
65 38 3
65 39 1
65 40 2
65 41 4
65 42 5
65 43 2
65 44 2
65 45 1
65 46 5
65 47 2
65 48 5
65 49 4
65 50 3
65 51 4
65 52 2
65 53 5
65 54 3
65 55 2
65 56 2
65 57 5
65 58 3
65 59 5
65 60 5
65 61 1
65 62 1
65 63 3
65 64 1
66 0 2
66 1 2
66 2 5
66 3 3
66 4 1
66 5 2
66 6 5
66 7 3
66 8 2
66 9 1
66 10 4
66 11 2
66 12 5
66 13 3
66 14 5
66 15 3
66 16 3
66 17 4
66 18 1
66 19 5
66 20 5
66 21 2
66 22 2
66 23 4
66 24 4
66 25 4
66 26 2
66 27 1
66 28 3
66 29 1
66 30 2
66 31 1
66 32 2
66 33 1
66 34 1
66 35 5
66 36 5
66 37 3
66 38 3
66 39 3
66 40 1
66 41 4
66 42 1
66 43 5
66 44 3
66 45 4
66 46 4
66 47 3
66 48 5
66 49 3
66 50 4
66 51 2
66 52 4
66 53 2
66 54 1
66 55 4
66 56 1
66 57 3
66 58 5
66 59 5
66 60 3
66 61 4
66 62 4
66 63 1
66 64 1
66 65 1
67 0 3
67 1 1
67 2 2
67 3 4
67 4 3
67 5 5
67 6 3
67 7 1
67 8 3
67 9 1
67 10 2
67 11 5
67 12 1
67 13 1
67 14 3
67 15 1
67 16 5
67 17 4
67 18 2
67 19 4
67 20 1
67 21 3
67 22 5
67 23 3
67 24 4
67 25 5
67 26 3
67 27 1
67 28 3
67 29 4
67 30 1
67 31 3
67 32 5
67 33 5
67 34 2
67 35 1
67 36 4
67 37 3
67 38 2
67 39 1
67 40 1
67 41 2
67 42 1
67 43 3
67 44 3
67 45 2
67 46 1
67 47 3
67 48 4
67 49 5
67 50 1
67 51 4
67 52 2
67 53 1
67 54 2
67 55 2
67 56 2
67 57 3
67 58 3
67 59 3
67 60 3
67 61 2
67 62 2
67 63 1
67 64 2
67 65 5
67 66 1
68 0 3
68 1 5
68 2 2
68 3 2
68 4 4
68 5 1
68 6 4
68 7 1
68 8 1
68 9 3
68 10 4
68 11 4
68 12 2
68 13 4
68 14 1
68 15 2
68 16 5
68 17 3
68 18 1
68 19 2
68 20 3
68 21 5
68 22 2
68 23 5
68 24 5
68 25 1
68 26 3
68 27 1
68 28 3
68 29 5
68 30 4
68 31 2
68 32 2
68 33 1
68 34 2
68 35 1
68 36 1
68 37 1
68 38 4
68 39 1
68 40 3
68 41 1
68 42 4
68 43 2
68 44 4
68 45 1
68 46 5
68 47 2
68 48 3
68 49 1
68 50 3
68 51 5
68 52 3
68 53 4
68 54 2
68 55 1
68 56 1
68 57 4
68 58 3
68 59 1
68 60 1
68 61 1
68 62 3
68 63 4
68 64 2
68 65 1
68 66 5
68 67 5
69 0 1
69 1 4
69 2 5
69 3 1
69 4 4
69 5 2
69 6 2
69 7 3
69 8 1
69 9 1
69 10 2
69 11 5
69 12 1
69 13 1
69 14 3
69 15 2
69 16 1
69 17 2
69 18 2
69 19 3
69 20 4
69 21 2
69 22 3
69 23 2
69 24 1
69 25 2
69 26 2
69 27 2
69 28 3
69 29 1
69 30 3
69 31 2
69 32 4
69 33 4
69 34 5
69 35 2
69 36 1
69 37 3
69 38 4
69 39 2
69 40 3
69 41 4
69 42 5
69 43 5
69 44 4
69 45 4
69 46 5
69 47 3
69 48 5
69 49 1
69 50 4
69 51 2
69 52 1
69 53 4
69 54 2
69 55 3
69 56 5
69 57 3
69 58 2
69 59 4
69 60 1
69 61 3
69 62 5
69 63 5
69 64 4
69 65 4
69 66 5
69 67 2
69 68 1
